NAME : amz1239.105211_102211.tour
COMMENT : Cost = 105211_102211
COMMENT : Found by LKH-AMZ [Keld Helsgaun] Sun May 11 13:04:24 2025
COMMENT : TW viol.: 0 #: 0
TYPE : TOUR
DIMENSION : 181
TOUR_SECTION
33
1
7
66
94
34
108
136
110
11
30
51
68
117
3
171
153
97
173
65
107
124
15
72
10
100
129
64
137
23
116
170
35
138
48
176
122
155
50
126
105
69
158
151
63
120
13
27
115
16
25
36
21
161
70
163
135
162
157
12
86
167
6
44
56
133
67
144
101
154
80
150
74
28
61
130
41
76
22
38
89
140
180
39
14
62
146
88
114
20
98
53
109
134
77
106
113
178
149
169
104
93
57
46
147
156
71
145
127
168
55
2
119
82
142
24
84
8
92
123
181
179
4
26
172
32
96
152
103
73
45
160
91
85
102
42
31
95
164
59
166
54
131
141
148
128
78
75
49
112
165
143
43
81
174
19
79
139
177
60
29
175
18
99
121
87
132
52
83
47
5
17
118
111
37
159
125
9
58
40
90
-1
EOF
